1490
3318
3335
8506
698
6085
7861
7948
947
1990
6034
6227
1179
3654
1090
8250
8444
1675
506
1436
8308
8048
4767
8072
4131
2518
1854
7918
6041
4898
693
5616
9407
9234
4569
6017
485
4161
2081
1593
6892
9895
928
6327
487
10103
5299
6475
3274
4759
